NAME          BLANK   
ROWS
 N  OBJROW
 L  R0000000
COLUMNS
    C0000000  OBJROW     -168.         R0000000  684.        
    C0000001  OBJROW     -547.         R0000000  45.         
    C0000002  OBJROW     -584.         R0000000  678.        
    C0000003  OBJROW     -513.         R0000000  805.        
    C0000004  OBJROW     -978.         R0000000  478.        
    C0000005  OBJROW     -417.         R0000000  549.        
    C0000006  OBJROW     -914.         R0000000  302.        
    C0000007  OBJROW     -225.         R0000000  485.        
    C0000008  OBJROW     -226.         R0000000  788.        
    C0000009  OBJROW     -65.          R0000000  623.        
    C0000010  OBJROW     -58.          R0000000  652.        
    C0000011  OBJROW     -519.         R0000000  583.        
    C0000012  OBJROW     -708.         R0000000  682.        
    C0000013  OBJROW     -429.         R0000000  641.        
    C0000014  OBJROW     -117.         R0000000  320.        
    C0000015  OBJROW     -213.         R0000000  258.        
    C0000016  OBJROW     -37.          R0000000  49.         
    C0000017  OBJROW     -69.          R0000000  402.        
    C0000018  OBJROW     -693.         R0000000  79.         
    C0000019  OBJROW     -734.         R0000000  123.        
RHS
    RHS       R0000000  4613.       
BOUNDS
 BV BOUND     C0000000  1.          
 BV BOUND     C0000001  1.          
 BV BOUND     C0000002  1.          
 BV BOUND     C0000003  1.          
 BV BOUND     C0000004  1.          
 BV BOUND     C0000005  1.          
 BV BOUND     C0000006  1.          
 BV BOUND     C0000007  1.          
 BV BOUND     C0000008  1.          
 BV BOUND     C0000009  1.          
 BV BOUND     C0000010  1.          
 BV BOUND     C0000011  1.          
 BV BOUND     C0000012  1.          
 BV BOUND     C0000013  1.          
 BV BOUND     C0000014  1.          
 BV BOUND     C0000015  1.          
 BV BOUND     C0000016  1.          
 BV BOUND     C0000017  1.          
 BV BOUND     C0000018  1.          
 BV BOUND     C0000019  1.          
ENDATA
